
(set-logic HORN)
(declare-fun Z_966 () Int)
(declare-fun S_260 (Int) Int)
(declare-fun diseqInt (Int Int) Bool)
(declare-fun unS_339 (Int Int) Bool)
(declare-fun isZ_242 (Int) Bool)
(declare-fun isS_242 (Int) Bool)
(assert (forall ((x_25904 Int))
	(unS_339 x_25904 (S_260 x_25904))))
(assert (isZ_242 Z_966))
(assert (forall ((x_25906 Int))
	(isS_242 (S_260 x_25906))))
(assert (forall ((x_25907 Int))
	(diseqInt Z_966 (S_260 x_25907))))
(assert (forall ((x_25908 Int))
	(diseqInt (S_260 x_25908) Z_966)))
(assert (forall ((x_25909 Int) (x_25910 Int))
	(=> (diseqInt x_25909 x_25910) (diseqInt (S_260 x_25909) (S_260 x_25910)))))
(declare-fun add_179 (Int Int Int) Bool)
(declare-fun minus_173 (Int Int Int) Bool)
(declare-fun le_169 (Int Int) Bool)
(declare-fun ge_169 (Int Int) Bool)
(declare-fun lt_177 (Int Int) Bool)
(declare-fun gt_171 (Int Int) Bool)
(declare-fun mult_169 (Int Int Int) Bool)
(declare-fun div_169 (Int Int Int) Bool)
(declare-fun mod_169 (Int Int Int) Bool)
(assert (forall ((y_1000 Int))
	(add_179 y_1000 Z_966 y_1000)))
(assert (forall ((x_25895 Int) (y_1000 Int) (r_202 Int))
	(=> (add_179 r_202 x_25895 y_1000) (add_179 (S_260 r_202) (S_260 x_25895) y_1000))))
(assert (forall ((y_1000 Int))
	(minus_173 Z_966 Z_966 y_1000)))
(assert (forall ((x_25895 Int) (y_1000 Int) (r_202 Int))
	(=> (minus_173 r_202 x_25895 y_1000) (minus_173 (S_260 r_202) (S_260 x_25895) y_1000))))
(assert (forall ((y_1000 Int))
	(le_169 Z_966 y_1000)))
(assert (forall ((x_25895 Int) (y_1000 Int))
	(=> (le_169 x_25895 y_1000) (le_169 (S_260 x_25895) (S_260 y_1000)))))
(assert (forall ((y_1000 Int))
	(ge_169 y_1000 Z_966)))
(assert (forall ((x_25895 Int) (y_1000 Int))
	(=> (ge_169 x_25895 y_1000) (ge_169 (S_260 x_25895) (S_260 y_1000)))))
(assert (forall ((y_1000 Int))
	(lt_177 Z_966 (S_260 y_1000))))
(assert (forall ((x_25895 Int) (y_1000 Int))
	(=> (lt_177 x_25895 y_1000) (lt_177 (S_260 x_25895) (S_260 y_1000)))))
(assert (forall ((y_1000 Int))
	(gt_171 (S_260 y_1000) Z_966)))
(assert (forall ((x_25895 Int) (y_1000 Int))
	(=> (gt_171 x_25895 y_1000) (gt_171 (S_260 x_25895) (S_260 y_1000)))))
(assert (forall ((y_1000 Int))
	(mult_169 Z_966 Z_966 y_1000)))
(assert (forall ((x_25895 Int) (y_1000 Int) (r_202 Int) (z_967 Int))
	(=> (and (mult_169 r_202 x_25895 y_1000) (add_179 z_967 r_202 y_1000)) (mult_169 z_967 (S_260 x_25895) y_1000))))
(assert (forall ((x_25895 Int) (y_1000 Int))
	(=> (lt_177 x_25895 y_1000) (div_169 Z_966 x_25895 y_1000))))
(assert (forall ((x_25895 Int) (y_1000 Int) (r_202 Int) (z_967 Int))
	(=> (and (ge_169 x_25895 y_1000) (minus_173 z_967 x_25895 y_1000) (div_169 r_202 z_967 y_1000)) (div_169 (S_260 r_202) x_25895 y_1000))))
(assert (forall ((x_25895 Int) (y_1000 Int))
	(=> (lt_177 x_25895 y_1000) (mod_169 x_25895 x_25895 y_1000))))
(assert (forall ((x_25895 Int) (y_1000 Int) (r_202 Int) (z_967 Int))
	(=> (and (ge_169 x_25895 y_1000) (minus_173 z_967 x_25895 y_1000) (mod_169 r_202 z_967 y_1000)) (mod_169 r_202 x_25895 y_1000))))
(declare-datatypes ((Bool_169 0)) (((false_169) (true_169))))
(declare-fun diseqBool_72 (Bool_169 Bool_169) Bool)
(declare-fun isfalse_72 (Bool_169) Bool)
(declare-fun istrue_72 (Bool_169) Bool)
(assert (isfalse_72 false_169))
(assert (istrue_72 true_169))
(assert (diseqBool_72 false_169 true_169))
(assert (diseqBool_72 true_169 false_169))
(declare-fun and_169 (Bool_169 Bool_169 Bool_169) Bool)
(declare-fun or_171 (Bool_169 Bool_169 Bool_169) Bool)
(declare-fun hence_169 (Bool_169 Bool_169 Bool_169) Bool)
(declare-fun not_170 (Bool_169 Bool_169) Bool)
(assert (and_169 false_169 false_169 false_169))
(assert (and_169 false_169 true_169 false_169))
(assert (and_169 false_169 false_169 true_169))
(assert (and_169 true_169 true_169 true_169))
(assert (or_171 false_169 false_169 false_169))
(assert (or_171 true_169 true_169 false_169))
(assert (or_171 true_169 false_169 true_169))
(assert (or_171 true_169 true_169 true_169))
(assert (hence_169 true_169 false_169 false_169))
(assert (hence_169 false_169 true_169 false_169))
(assert (hence_169 true_169 false_169 true_169))
(assert (hence_169 true_169 true_169 true_169))
(assert (not_170 true_169 false_169))
(assert (not_170 false_169 true_169))
(declare-datatypes ((list_120 0)) (((nil_133) (cons_120 (head_240 Int) (tail_240 list_120)))))
(declare-fun diseqlist_120 (list_120 list_120) Bool)
(declare-fun head_241 (Int list_120) Bool)
(declare-fun tail_241 (list_120 list_120) Bool)
(declare-fun isnil_133 (list_120) Bool)
(declare-fun iscons_120 (list_120) Bool)
(assert (forall ((x_25914 Int) (x_25915 list_120))
	(head_241 x_25914 (cons_120 x_25914 x_25915))))
(assert (forall ((x_25914 Int) (x_25915 list_120))
	(tail_241 x_25915 (cons_120 x_25914 x_25915))))
(assert (isnil_133 nil_133))
(assert (forall ((x_25917 Int) (x_25918 list_120))
	(iscons_120 (cons_120 x_25917 x_25918))))
(assert (forall ((x_25919 Int) (x_25920 list_120))
	(diseqlist_120 nil_133 (cons_120 x_25919 x_25920))))
(assert (forall ((x_25921 Int) (x_25922 list_120))
	(diseqlist_120 (cons_120 x_25921 x_25922) nil_133)))
(assert (forall ((x_25923 Int) (x_25924 list_120) (x_25925 Int) (x_25926 list_120))
	(=> (diseqInt x_25923 x_25925) (diseqlist_120 (cons_120 x_25923 x_25924) (cons_120 x_25925 x_25926)))))
(assert (forall ((x_25923 Int) (x_25924 list_120) (x_25925 Int) (x_25926 list_120))
	(=> (diseqlist_120 x_25924 x_25926) (diseqlist_120 (cons_120 x_25923 x_25924) (cons_120 x_25925 x_25926)))))
(declare-datatypes ((pair_42 0)) (((pair_43 (projpair_84 list_120) (projpair_85 list_120)))))
(declare-fun diseqpair_21 (pair_42 pair_42) Bool)
(declare-fun projpair_86 (list_120 pair_42) Bool)
(declare-fun projpair_87 (list_120 pair_42) Bool)
(declare-fun ispair_21 (pair_42) Bool)
(assert (forall ((x_25927 list_120) (x_25928 list_120))
	(projpair_86 x_25927 (pair_43 x_25927 x_25928))))
(assert (forall ((x_25927 list_120) (x_25928 list_120))
	(projpair_87 x_25928 (pair_43 x_25927 x_25928))))
(assert (forall ((x_25930 list_120) (x_25931 list_120))
	(ispair_21 (pair_43 x_25930 x_25931))))
(assert (forall ((x_25932 list_120) (x_25933 list_120) (x_25934 list_120) (x_25935 list_120))
	(=> (diseqlist_120 x_25932 x_25934) (diseqpair_21 (pair_43 x_25932 x_25933) (pair_43 x_25934 x_25935)))))
(assert (forall ((x_25932 list_120) (x_25933 list_120) (x_25934 list_120) (x_25935 list_120))
	(=> (diseqlist_120 x_25933 x_25935) (diseqpair_21 (pair_43 x_25932 x_25933) (pair_43 x_25934 x_25935)))))
(declare-fun take_25 (list_120 Int list_120) Bool)
(assert (forall ((x_25835 Int) (y_990 list_120))
	(=> (le_169 x_25835 Z_966) (take_25 nil_133 x_25835 y_990))))
(assert (forall ((x_25896 Int) (x_25851 list_120) (z_961 Int) (xs_314 list_120) (x_25835 Int))
	(=> (and (gt_171 x_25835 Z_966) (take_25 x_25851 x_25896 xs_314) (minus_173 x_25896 x_25835 (S_260 Z_966))) (take_25 (cons_120 z_961 x_25851) x_25835 (cons_120 z_961 xs_314)))))
(assert (forall ((x_25835 Int) (y_990 list_120))
	(=> (le_169 x_25835 Z_966) (take_25 nil_133 x_25835 y_990))))
(assert (forall ((x_25835 Int))
	(=> (gt_171 x_25835 Z_966) (take_25 nil_133 x_25835 nil_133))))
(declare-fun sort_16 (list_120 Int Int) Bool)
(assert (forall ((x_25836 Int) (y_991 Int))
	(=> (le_169 x_25836 y_991) (sort_16 (cons_120 x_25836 (cons_120 y_991 nil_133)) x_25836 y_991))))
(assert (forall ((x_25836 Int) (y_991 Int))
	(=> (gt_171 x_25836 y_991) (sort_16 (cons_120 y_991 (cons_120 x_25836 nil_133)) x_25836 y_991))))
(declare-fun ordered_8 (Bool_169 list_120) Bool)
(assert (forall ((x_25856 Bool_169) (y_993 Int) (xs_315 list_120) (y_992 Int))
	(=> (and (le_169 y_992 y_993) (ordered_8 x_25856 (cons_120 y_993 xs_315))) (ordered_8 x_25856 (cons_120 y_992 (cons_120 y_993 xs_315))))))
(assert (forall ((y_993 Int) (xs_315 list_120) (y_992 Int))
	(=> (gt_171 y_992 y_993) (ordered_8 false_169 (cons_120 y_992 (cons_120 y_993 xs_315))))))
(assert (forall ((y_992 Int))
	(ordered_8 true_169 (cons_120 y_992 nil_133))))
(assert (ordered_8 true_169 nil_133))
(declare-fun length_13 (Int list_120) Bool)
(assert (forall ((x_25861 Int) (x_25862 Int) (y_994 Int) (l_15 list_120))
	(=> (and (length_13 x_25862 l_15) (add_179 x_25861 (S_260 Z_966) x_25862)) (length_13 x_25861 (cons_120 y_994 l_15)))))
(assert (length_13 Z_966 nil_133))
(declare-fun drop_27 (list_120 Int list_120) Bool)
(assert (forall ((x_25864 list_120) (x_25839 Int))
	(=> (le_169 x_25839 Z_966) (drop_27 x_25864 x_25839 x_25864))))
(assert (forall ((x_25898 Int) (x_25865 list_120) (z_963 Int) (xs_316 list_120) (x_25839 Int))
	(=> (and (gt_171 x_25839 Z_966) (drop_27 x_25865 x_25898 xs_316) (minus_173 x_25898 x_25839 (S_260 Z_966))) (drop_27 x_25865 x_25839 (cons_120 z_963 xs_316)))))
(assert (forall ((x_25867 list_120) (x_25839 Int))
	(=> (le_169 x_25839 Z_966) (drop_27 x_25867 x_25839 x_25867))))
(assert (forall ((x_25839 Int))
	(=> (gt_171 x_25839 Z_966) (drop_27 nil_133 x_25839 nil_133))))
(declare-fun splitAt_8 (pair_42 Int list_120) Bool)
(assert (forall ((x_25870 list_120) (x_25871 list_120) (x_25840 Int) (y_996 list_120))
	(=> (and (take_25 x_25870 x_25840 y_996) (drop_27 x_25871 x_25840 y_996)) (splitAt_8 (pair_43 x_25870 x_25871) x_25840 y_996))))
(declare-fun x_25841 (list_120 list_120 list_120) Bool)
(assert (forall ((x_25873 list_120) (z_964 Int) (xs_317 list_120) (y_997 list_120))
	(=> (x_25841 x_25873 xs_317 y_997) (x_25841 (cons_120 z_964 x_25873) (cons_120 z_964 xs_317) y_997))))
(assert (forall ((x_25874 list_120))
	(x_25841 x_25874 nil_133 x_25874)))
(declare-fun stoogesort_15 (list_120 list_120) Bool)
(declare-fun stoogesort_16 (list_120 list_120) Bool)
(declare-fun stoogesort_17 (list_120 list_120) Bool)
(assert (forall ((x_25899 Int) (x_25900 Int) (x_25901 Int) (x_25877 list_120) (x_25878 list_120) (x_25875 Int) (ys_97 list_120) (zs_27 list_120) (x_25843 list_120))
	(=> (and (stoogesort_16 x_25878 ys_97) (x_25841 x_25877 x_25878 zs_27) (length_13 x_25875 x_25843) (splitAt_8 (pair_43 ys_97 zs_27) x_25901 x_25843) (mult_169 x_25899 (S_260 (S_260 Z_966)) x_25875) (add_179 x_25900 x_25899 (S_260 Z_966)) (div_169 x_25901 x_25900 (S_260 (S_260 (S_260 Z_966))))) (stoogesort_15 x_25877 x_25843))))
(assert (forall ((x_25880 list_120) (x_25881 list_120) (x_25882 list_120) (x_25846 Int) (x_25847 list_120) (y_999 Int) (y_998 Int))
	(=> (and (stoogesort_15 x_25881 (cons_120 y_998 (cons_120 y_999 (cons_120 x_25846 x_25847)))) (stoogesort_17 x_25882 x_25881) (stoogesort_15 x_25880 x_25882)) (stoogesort_16 x_25880 (cons_120 y_998 (cons_120 y_999 (cons_120 x_25846 x_25847)))))))
(assert (forall ((x_25884 list_120) (y_999 Int) (y_998 Int))
	(=> (sort_16 x_25884 y_998 y_999) (stoogesort_16 x_25884 (cons_120 y_998 (cons_120 y_999 nil_133))))))
(assert (forall ((y_998 Int))
	(stoogesort_16 (cons_120 y_998 nil_133) (cons_120 y_998 nil_133))))
(assert (stoogesort_16 nil_133 nil_133))
(assert (forall ((x_25902 Int) (x_25890 list_120) (x_25891 list_120) (x_25888 Int) (ys_98 list_120) (zs_28 list_120) (x_25848 list_120))
	(=> (and (stoogesort_16 x_25891 zs_28) (x_25841 x_25890 ys_98 x_25891) (length_13 x_25888 x_25848) (splitAt_8 (pair_43 ys_98 zs_28) x_25902 x_25848) (div_169 x_25902 x_25888 (S_260 (S_260 (S_260 Z_966))))) (stoogesort_17 x_25890 x_25848))))
(assert (forall ((x_25893 list_120) (xs_318 list_120))
	(=> (and true (stoogesort_16 x_25893 xs_318) (ordered_8 false_169 x_25893)) false)))
(check-sat)
